Models_gurobi/lp/Glover_diff.ilp
\ Model Glover_copy
\ LP format - for model browsing. Use MPS format to capture full model detail.
Minimize
 
Subject To
 R1: C0 >= 3.565835952758789
 R2: C1 <= 1.516638398170471
 R4: 2.879850149154663 C0 - 0.8426412343978882 C1 - 1500 C10
   <= -0.5241518020629883
 R6: - 2.879850149154663 C0 + 0.8426412343978882 C1 + C2 - 1500 C10
   >= -1499.475848197937
 R14: 1.255256772041321 C0 - 2.670398712158203 C1 + C3 + 1500 C11
   <= 1502.37655544281
 R15: C3 - 1500 C11 <= 0
 R16: - 5.5039472853899 C2 + 4.583046604156494 C3 - 1500 C7
   >= -1501.426318175292
 R17: - 1.528492716526985 C2 + 3.258841324806213 C3 - 1500 C8
   >= -1503.328055477834
 R18: C7 + C8 >= 1
Bounds
 C0 free
 C1 free
 C2 free
 C3 free
Binaries
 C7 C8 C10 C11
End
