Models_gurobi/lp/glover_diff.lp
\ Model Glover
\ LP format - for model browsing. Use MPS format to capture full model detail.
Minimize
  0.1 C5 - 0.55 C6 - 0.1 C7 - 0.4 C8 + 0 C9 + 0 C10 + 0 C11 + 0 C12
   + 0.6 Constant
Subject To
 R0: C0 <= 10.6
 R1: C0 >= -9.4
 R2: C1 <= 9.7
 R3: C1 >= -10.3
 R4: C2 <= 10.4
 R5: C2 >= -9.6
 R6: 0.3 C0 - 0.15 C1 + 0.3 C2 - 15 C15 <= 0.2
 R7: 0.3 C0 - 0.15 C1 + 0.3 C2 - 15 C15 >= -14.8
 R8: - 0.3 C0 + 0.15 C1 - 0.3 C2 + C3 - 15 C15 >= -15.2
 R9: C3 + 15 C15 >= 0
 R10: - 0.3 C0 + 0.15 C1 - 0.3 C2 + C3 + 15 C15 <= 14.8
 R11: C3 - 15 C15 <= 0
 R12: - 0.2 C0 - 0.5 C1 + 0.5 C2 - 15 C16 <= -0.1
 R13: - 0.2 C0 - 0.5 C1 + 0.5 C2 - 15 C16 >= -15.1
 R14: 0.2 C0 + 0.5 C1 - 0.5 C2 + C4 - 15 C16 >= -14.9
 R15: C4 + 15 C16 >= 0
 R16: 0.2 C0 + 0.5 C1 - 0.5 C2 + C4 + 15 C16 <= 15.1
 R17: C4 - 15 C16 <= 0
 R18: - 0.3 C3 + 0.3 C4 - 15 C17 <= -0.3
 R19: - 0.3 C3 + 0.3 C4 - 15 C17 >= -15.3
 R20: 0.3 C3 - 0.3 C4 + C5 - 15 C17 >= -14.7
 R21: C5 + 15 C17 >= 0
 R22: 0.3 C3 - 0.3 C4 + C5 + 15 C17 <= 15.3
 R23: C5 - 15 C17 <= 0
 R24: 0.1 C3 - 0.2 C4 - 15 C18 <= 0.2
 R25: 0.1 C3 - 0.2 C4 - 15 C18 >= -14.8
 R26: - 0.1 C3 + 0.2 C4 + C6 - 15 C18 >= -15.2
 R27: C6 + 15 C18 >= 0
 R28: - 0.1 C3 + 0.2 C4 + C6 + 15 C18 <= 14.8
 R29: C6 - 15 C18 <= 0
 R30: 0.15 C3 - 0.15 C4 - 15 C19 <= -0.3
 R31: 0.15 C3 - 0.15 C4 - 15 C19 >= -15.3
 R32: - 0.15 C3 + 0.15 C4 + C7 - 15 C19 >= -14.7
 R33: C7 + 15 C19 >= 0
 R34: - 0.15 C3 + 0.15 C4 + C7 + 15 C19 <= 15.3
 R35: C7 - 15 C19 <= 0
 R36: 0.8 C3 + 0.6 C4 - 15 C20 <= 0.1
 R37: 0.8 C3 + 0.6 C4 - 15 C20 >= -14.9
 R38: - 0.8 C3 - 0.6 C4 + C8 - 15 C20 >= -15.1
 R39: C8 + 15 C20 >= 0
 R40: - 0.8 C3 - 0.6 C4 + C8 + 15 C20 <= 14.9
 R41: C8 - 15 C20 <= 0
 R42: - 0.53 C5 - 0.04 C6 + 0.35 C7 + 0.17 C8 - 15 C13 >= -14.28
 R43: 0.07 C5 + 0.71 C6 + 0.35 C7 - 0.13 C8 - 15 C14 >= -14.88
 R44: C13 + C14 >= 1
Bounds
 C0 >= -15
 C1 >= -15
 C2 >= -15
 C12 <= 1
 C13 <= 1
 C14 <= 1
 C15 <= 1
 C16 <= 1
 C17 <= 1
 C18 <= 1
 C19 <= 1
 C20 <= 1
 Constant = 1
End
